4 
5  27 44 57 
6  12 25 38 53 
7  08 23 38 53 
8  08 23 38 53 
9  08 23 38 55 
10  10 25 40 55 
11  10 25 40 55 
12  10 25 40 55 
13  10 25 40 55 
14  10 25 40 55 
15  10 25 40 55 
16  10 25 40 55 
17  10 25 40 55 
18  10 25 40 55 
19  10 25 40 55 
20  10 25 40 55 
21  10 25 40 55 
22  12 27 42 54 
23  07 
0 
